c 
c G(k,n,p) graph
c graph gen seed     : 12594
c number of vertices : 30
c max number of edges: 500
c number of classes  : 2
c edge density       : 0.600000
c edge probability   : 1.200000
c data structure     : dense
c
c           Graph Stats
c number of vertices  : 30
c nonisolated vertices: 30
c number of edges     : 224
c edge density        : 0.514943
c max degree          : 16
c avg degree          : 14.93
c min degree          : 14
p col 30 224
e 1 2
e 1 3
e 1 4
e 1 6
e 1 7
e 1 11
e 1 12
e 1 13
e 1 15
e 1 16
e 1 17
e 1 18
e 1 19
e 1 21
e 1 22
e 1 23
e 2 5
e 2 8
e 2 9
e 2 10
e 2 14
e 2 20
e 2 24
e 2 25
e 2 26
e 2 27
e 2 28
e 2 29
e 2 30
e 3 5
e 3 8
e 3 9
e 3 10
e 3 14
e 3 20
e 3 24
e 3 25
e 3 26
e 3 27
e 3 28
e 3 29
e 3 30
e 4 5
e 4 8
e 4 9
e 4 10
e 4 14
e 4 20
e 4 24
e 4 25
e 4 26
e 4 27
e 4 28
e 4 29
e 4 30
e 5 6
e 5 7
e 5 11
e 5 12
e 5 13
e 5 15
e 5 16
e 5 17
e 5 18
e 5 19
e 5 21
e 5 22
e 5 23
e 6 8
e 6 9
e 6 10
e 6 14
e 6 20
e 6 24
e 6 25
e 6 26
e 6 27
e 6 28
e 6 29
e 6 30
e 7 8
e 7 9
e 7 10
e 7 14
e 7 20
e 7 24
e 7 25
e 7 26
e 7 27
e 7 28
e 7 29
e 7 30
e 8 11
e 8 12
e 8 13
e 8 15
e 8 16
e 8 17
e 8 18
e 8 19
e 8 21
e 8 22
e 8 23
e 9 11
e 9 12
e 9 13
e 9 15
e 9 16
e 9 17
e 9 18
e 9 19
e 9 21
e 9 22
e 9 23
e 10 11
e 10 12
e 10 13
e 10 15
e 10 16
e 10 17
e 10 18
e 10 19
e 10 21
e 10 22
e 10 23
e 11 14
e 11 20
e 11 24
e 11 25
e 11 26
e 11 27
e 11 28
e 11 29
e 11 30
e 12 14
e 12 20
e 12 24
e 12 25
e 12 26
e 12 27
e 12 28
e 12 29
e 12 30
e 13 14
e 13 20
e 13 24
e 13 25
e 13 26
e 13 27
e 13 28
e 13 29
e 13 30
e 14 15
e 14 16
e 14 17
e 14 18
e 14 19
e 14 21
e 14 22
e 14 23
e 15 20
e 15 24
e 15 25
e 15 26
e 15 27
e 15 28
e 15 29
e 15 30
e 16 20
e 16 24
e 16 25
e 16 26
e 16 27
e 16 28
e 16 29
e 16 30
e 17 20
e 17 24
e 17 25
e 17 26
e 17 27
e 17 28
e 17 29
e 17 30
e 18 20
e 18 24
e 18 25
e 18 26
e 18 27
e 18 28
e 18 29
e 18 30
e 19 20
e 19 24
e 19 25
e 19 26
e 19 27
e 19 28
e 19 29
e 19 30
e 20 21
e 20 22
e 20 23
e 21 24
e 21 25
e 21 26
e 21 27
e 21 28
e 21 29
e 21 30
e 22 24
e 22 25
e 22 26
e 22 27
e 22 28
e 22 29
e 22 30
e 23 24
e 23 25
e 23 26
e 23 27
e 23 28
e 23 29
e 23 30
